NAME : Unnamed.862.tour
COMMENT : Length = 862
COMMENT : Found by LKH [Keld Helsgaun] Tue Jan 13 16:45:11 2015
TYPE : TOUR
DIMENSION : 102
TOUR_SECTION
1
9
75
44
31
14
10
22
23
13
78
70
49
65
85
72
30
2
83
11
92
84
48
38
73
33
21
97
87
20
53
68
64
79
46
17
40
32
86
96
15
51
47
4
67
42
16
81
63
5
6
74
60
28
71
91
62
57
93
77
43
101
69
39
27
35
94
50
25
34
37
12
8
99
41
102
26
36
3
29
24
89
18
59
82
52
55
98
7
61
45
76
95
58
66
90
19
56
100
80
54
88
-1
EOF
